
Gurobi 9.0.1 (linux64) logging started Thu Apr 30 05:57:54 2020

Gurobi Optimizer version 9.0.1 build v9.0.1rc0 (linux64)
Optimize a model with 980 rows, 990 columns and 7152 nonzeros
Model fingerprint: 0xf944e71c
Variable types: 0 continuous, 990 integer (980 binary)
Coefficient statistics:
  Matrix range     [1e+00, 5e+00]
  Objective range  [3e+00, 1e+02]
  Bounds range     [1e+00, 1e+00]
  RHS range        [1e+00, 1e+00]

User MIP start produced solution with objective 501 (0.00s)
Loaded user MIP start with objective 501

Presolve removed 504 rows and 480 columns
Presolve time: 0.06s
Presolved: 476 rows, 510 columns, 3902 nonzeros
Variable types: 0 continuous, 510 integer (510 binary)

Root relaxation: objective 4.144493e+02, 282 iterations, 0.01 seconds

    Nodes    |    Current Node    |     Objective Bounds      |     Work
 Expl Unexpl |  Obj  Depth IntInf | Incumbent    BestBd   Gap | It/Node Time

     0     0  414.44928    0  120  501.00000  414.44928  17.3%     -    0s
     0     0  441.24074    0  133  501.00000  441.24074  11.9%     -    0s
     0     0  441.84550    0  126  501.00000  441.84550  11.8%     -    0s
     0     0  447.31898    0  150  501.00000  447.31898  10.7%     -    0s
     0     0  447.33951    0  152  501.00000  447.33951  10.7%     -    0s
     0     0  447.40087    0  154  501.00000  447.40087  10.7%     -    0s
     0     0  453.23282    0  140  501.00000  453.23282  9.53%     -    0s
     0     0  453.35196    0  143  501.00000  453.35196  9.51%     -    0s
     0     0  453.37586    0  147  501.00000  453.37586  9.51%     -    0s
     0     0  457.23918    0  136  501.00000  457.23918  8.73%     -    0s
     0     0  458.71632    0  157  501.00000  458.71632  8.44%     -    0s
     0     0  459.14940    0  155  501.00000  459.14940  8.35%     -    0s
     0     0  460.57496    0  154  501.00000  460.57496  8.07%     -    0s
     0     0  460.60577    0  154  501.00000  460.60577  8.06%     -    0s
     0     0  460.85830    0  160  501.00000  460.85830  8.01%     -    0s
     0     0  460.85830    0  156  501.00000  460.85830  8.01%     -    0s
     0     0  461.52956    0  112  501.00000  461.52956  7.88%     -    0s
     0     0  461.52956    0  139  501.00000  461.52956  7.88%     -    0s
     0     0  461.52956    0  142  501.00000  461.52956  7.88%     -    0s
     0     0  461.52956    0  151  501.00000  461.52956  7.88%     -    0s
     0     0  461.52956    0  145  501.00000  461.52956  7.88%     -    0s
     0     0  461.52956    0  146  501.00000  461.52956  7.88%     -    0s
     0     0  465.25266    0  158  501.00000  465.25266  7.14%     -    0s
     0     0  465.67010    0  151  501.00000  465.67010  7.05%     -    0s
     0     0  465.72621    0  150  501.00000  465.72621  7.04%     -    0s
     0     0  465.78177    0  149  501.00000  465.78177  7.03%     -    0s
     0     0  465.81880    0  157  501.00000  465.81880  7.02%     -    0s
     0     0  470.28865    0  142  501.00000  470.28865  6.13%     -    0s
     0     0  470.63942    0  146  501.00000  470.63942  6.06%     -    0s
     0     0  470.79964    0  149  501.00000  470.79964  6.03%     -    0s
     0     0  470.80876    0  151  501.00000  470.80876  6.03%     -    0s
     0     0  471.47059    0  144  501.00000  471.47059  5.89%     -    0s
     0     0  471.54511    0  154  501.00000  471.54511  5.88%     -    0s
     0     0  471.57793    0  155  501.00000  471.57793  5.87%     -    0s
     0     0  472.36667    0  148  501.00000  472.36667  5.72%     -    1s
     0     0  472.55406    0  157  501.00000  472.55406  5.68%     -    1s
     0     0  472.60646    0  158  501.00000  472.60646  5.67%     -    1s
     0     0  472.61874    0  159  501.00000  472.61874  5.66%     -    1s
     0     0  472.98302    0  154  501.00000  472.98302  5.59%     -    1s
     0     0  473.01677    0  154  501.00000  473.01677  5.59%     -    1s
     0     0  473.30428    0  157  501.00000  473.30428  5.53%     -    1s
     0     0  473.30428    0  155  501.00000  473.30428  5.53%     -    1s
     0     0  473.46226    0  109  501.00000  473.46226  5.50%     -    1s
     0     0  473.46226    0  109  501.00000  473.46226  5.50%     -    1s
     0     0  473.46226    0  117  501.00000  473.46226  5.50%     -    1s
     0     0  473.62258    0  112  501.00000  473.62258  5.46%     -    1s
     0     0  473.62288    0  112  501.00000  473.62288  5.46%     -    1s
     0     0  474.38436    0  106  501.00000  474.38436  5.31%     -    1s
     0     0  474.38436    0  109  501.00000  474.38436  5.31%     -    1s
     0     0  478.35870    0  109  501.00000  478.35870  4.52%     -    1s
     0     0  478.76250    0  110  501.00000  478.76250  4.44%     -    1s
     0     0  479.54545    0   86  501.00000  479.54545  4.28%     -    1s
     0     0  479.81186    0  104  501.00000  479.81186  4.23%     -    1s
     0     0  480.04301    0  105  501.00000  480.04301  4.18%     -    1s
     0     0  480.18182    0   89  501.00000  480.18182  4.16%     -    1s
     0     0  480.18898    0  107  501.00000  480.18898  4.15%     -    1s
     0     0  480.22222    0  105  501.00000  480.22222  4.15%     -    1s
     0     0  480.24365    0  112  501.00000  480.24365  4.14%     -    1s
     0     0  480.24545    0  110  501.00000  480.24545  4.14%     -    1s
     0     0  480.24545    0  105  501.00000  480.24545  4.14%     -    1s
     0     0  480.45000    0   86  501.00000  480.45000  4.10%     -    1s
     0     0  480.45000    0   59  501.00000  480.45000  4.10%     -    1s
     0     0  480.45000    0   99  501.00000  480.45000  4.10%     -    1s
     0     0  480.45000    0  103  501.00000  480.45000  4.10%     -    1s
     0     0  480.45000    0  106  501.00000  480.45000  4.10%     -    1s
     0     0  480.45000    0  102  501.00000  480.45000  4.10%     -    1s
     0     0  480.45000    0  104  501.00000  480.45000  4.10%     -    1s
     0     0  480.45000    0  105  501.00000  480.45000  4.10%     -    1s
     0     0  480.45000    0  106  501.00000  480.45000  4.10%     -    1s
     0     0  480.91584    0  102  501.00000  480.91584  4.01%     -    1s
     0     0  481.10847    0   98  501.00000  481.10847  3.97%     -    1s
     0     0  481.17391    0  104  501.00000  481.17391  3.96%     -    1s
     0     0  481.21277    0   96  501.00000  481.21277  3.95%     -    1s
     0     0  481.21622    0   95  501.00000  481.21622  3.95%     -    1s
     0     0  481.28571    0   81  501.00000  481.28571  3.93%     -    1s
     0     0  481.40777    0   99  501.00000  481.40777  3.91%     -    1s
     0     0  481.47187    0  102  501.00000  481.47187  3.90%     -    1s
     0     0  481.47727    0  103  501.00000  481.47727  3.90%     -    1s
     0     0  481.47727    0  103  501.00000  481.47727  3.90%     -    1s
     0     0  481.47727    0  100  501.00000  481.47727  3.90%     -    1s
     0     0  481.59272    0   70  501.00000  481.59272  3.87%     -    1s
     0     0  481.59272    0   50  501.00000  481.59272  3.87%     -    1s
     0     0  481.59272    0   86  501.00000  481.59272  3.87%     -    1s
     0     0  481.59272    0   82  501.00000  481.59272  3.87%     -    1s
     0     0  481.59272    0   94  501.00000  481.59272  3.87%     -    1s
     0     0  481.59272    0   92  501.00000  481.59272  3.87%     -    1s
     0     0  481.59272    0   90  501.00000  481.59272  3.87%     -    1s
     0     0  481.59272    0   90  501.00000  481.59272  3.87%     -    1s
     0     0  481.59272    0   94  501.00000  481.59272  3.87%     -    1s
     0     0  481.59272    0   96  501.00000  481.59272  3.87%     -    1s
     0     0  481.59272    0   97  501.00000  481.59272  3.87%     -    1s
     0     0  482.33333    0   75  501.00000  482.33333  3.73%     -    1s
     0     0  482.54348    0   88  501.00000  482.54348  3.68%     -    2s
     0     0  482.55263    0   87  501.00000  482.55263  3.68%     -    2s
     0     0  487.41176    0   76  501.00000  487.41176  2.71%     -    2s
     0     0  487.92000    0   80  501.00000  487.92000  2.61%     -    2s
     0     0  489.16667    0   70  501.00000  489.16667  2.36%     -    2s
     0     0  489.52174    0   91  501.00000  489.52174  2.29%     -    2s
     0     0  489.53676    0   98  501.00000  489.53676  2.29%     -    2s
     0     0  489.53676    0   99  501.00000  489.53676  2.29%     -    2s
     0     0  489.53676    0  100  501.00000  489.53676  2.29%     -    2s
     0     0  489.54545    0   90  501.00000  489.54545  2.29%     -    2s
     0     0  490.57895    0   78  501.00000  490.57895  2.08%     -    2s
     0     0  492.25000    0   66  501.00000  492.25000  1.75%     -    2s
     0     0  493.24306    0   95  501.00000  493.24306  1.55%     -    2s
     0     0  498.50000    0   60  501.00000  498.50000  0.50%     -    2s

Cutting planes:
  MIR: 15
  Zero half: 5
  RLT: 1

Explored 1 nodes (4825 simplex iterations) in 2.26 seconds
Thread count was 1 (of 40 available processors)

Solution count 1: 501 

Optimal solution found (tolerance 1.00e-04)
Best objective 5.010000000000e+02, best bound 5.010000000000e+02, gap 0.0000%

User-callback calls 1155, time in user-callback 0.00 sec
